presolving:
(round 1, fast)       34 del vars, 0 del conss, 0 add conss, 0 chg bounds, 0 chg sides, 0 chg coeffs, 0 upgd conss, 0 impls, 1289 clqs
   (0.0s) running MILP presolver
   (0.0s) MILP presolver found nothing
(round 2, exhaustive) 34 del vars, 0 del conss, 0 add conss, 0 chg bounds, 0 chg sides, 0 chg coeffs, 1190 upgd conss, 0 impls, 1289 clqs
(round 3, fast)       34 del vars, 0 del conss, 0 add conss, 0 chg bounds, 0 chg sides, 38 chg coeffs, 1190 upgd conss, 0 impls, 1289 clqs
(round 4, exhaustive) 34 del vars, 0 del conss, 0 add conss, 0 chg bounds, 0 chg sides, 72 chg coeffs, 1190 upgd conss, 0 impls, 1289 clqs
   (0.1s) probing: 51/1156 (4.4%) - 0 fixings, 0 aggregations, 0 implications, 0 bound changes
   (0.1s) probing aborted: 50/50 successive totally useless probings
   (0.1s) symmetry computation started: requiring (bin +, int -, cont +), (fixed: bin -, int +, cont -)
   (0.1s) no symmetry present
presolving (5 rounds: 5 fast, 3 medium, 3 exhaustive):
 34 deleted vars, 0 deleted constraints, 0 added constraints, 0 tightened bounds, 0 added holes, 0 changed sides, 72 changed coefficients
 0 implications, 1359 cliques
presolved problem has 1156 variables (1156 bin, 0 int, 0 impl, 0 cont) and 1190 constraints
     35 constraints of type <knapsack>
   1122 constraints of type <setppc>
     33 constraints of type <logicor>
transformed objective value is always integral (scale: 1)
Presolving Time: 0.07

 time | node  | left  |LP iter|LP it/n|mem/heur|mdpt |vars |cons |rows |cuts |sepa|confs|strbr|  dualbound   | primalbound  |  gap   | compl. 
p 0.1s|     1 |     0 |     0 |     - |   locks|   0 |1156 |1191 |1190 |   0 |  0 |   0 |   0 | 0.000000e+00 | 2.180100e+04 |    Inf | unknown
i 0.1s|     1 |     0 |    15 |     - |  oneopt|   0 |1156 |1223 |1190 |   0 |  0 |  32 |   0 | 0.000000e+00 | 1.284800e+04 |    Inf | unknown
  0.5s|     1 |     0 |  1755 |     - |    14M |   0 |1156 |1223 |1190 |   0 |  0 |  32 |   0 | 4.711297e+03 | 1.284800e+04 | 172.71%| unknown
r 0.5s|     1 |     0 |  1755 |     - |shifting|   0 |1156 |1223 |1190 |   0 |  0 |  32 |   0 | 4.711297e+03 | 8.759000e+03 |  85.91%| unknown
  0.5s|     1 |     0 |  1839 |     - |    15M |   0 |1156 |1223 |1197 |   7 |  1 |  32 |   0 | 4.726959e+03 | 8.759000e+03 |  85.30%| unknown
r 0.5s|     1 |     0 |  1839 |     - |shifting|   0 |1156 |1223 |1197 |   7 |  1 |  32 |   0 | 4.726959e+03 | 7.434000e+03 |  57.27%| unknown
  0.5s|     1 |     0 |  1894 |     - |    15M |   0 |1156 |1223 |1203 |  13 |  2 |  32 |   0 | 4.732373e+03 | 7.434000e+03 |  57.09%| unknown
  0.6s|     1 |     0 |  1949 |     - |    15M |   0 |1156 |1223 |1209 |  19 |  3 |  32 |   0 | 4.736731e+03 | 7.434000e+03 |  56.94%| unknown
r 0.6s|     1 |     0 |  1949 |     - |shifting|   0 |1156 |1223 |1209 |  19 |  3 |  32 |   0 | 4.736731e+03 | 6.613000e+03 |  39.61%| unknown
  0.7s|     1 |     0 |  1999 |     - |    16M |   0 |1156 |1223 |1215 |  25 |  4 |  32 |   0 | 4.743658e+03 | 6.613000e+03 |  39.41%| unknown
r 0.7s|     1 |     0 |  1999 |     - |shifting|   0 |1156 |1223 |1215 |  25 |  4 |  32 |   0 | 4.743658e+03 | 6.547000e+03 |  38.02%| unknown
  0.7s|     1 |     0 |  2025 |     - |    16M |   0 |1156 |1223 |1221 |  31 |  5 |  32 |   0 | 4.744879e+03 | 6.547000e+03 |  37.98%| unknown
r 0.7s|     1 |     0 |  2025 |     - |shifting|   0 |1156 |1223 |1221 |  31 |  5 |  32 |   0 | 4.744879e+03 | 6.113000e+03 |  28.83%| unknown
  0.7s|     1 |     0 |  2077 |     - |    16M |   0 |1156 |1223 |1227 |  37 |  6 |  32 |   0 | 4.747338e+03 | 6.113000e+03 |  28.77%| unknown
  0.8s|     1 |     0 |  2192 |     - |    16M |   0 |1156 |1223 |1233 |  43 |  7 |  32 |   0 | 4.754060e+03 | 6.113000e+03 |  28.58%| unknown
 time | node  | left  |LP iter|LP it/n|mem/heur|mdpt |vars |cons |rows |cuts |sepa|confs|strbr|  dualbound   | primalbound  |  gap   | compl. 
  0.9s|     1 |     0 |  2210 |     - |    16M |   0 |1156 |1223 |1240 |  50 |  8 |  32 |   0 | 4.754941e+03 | 6.113000e+03 |  28.56%| unknown
  1.0s|     1 |     0 |  2397 |     - |    17M |   0 |1156 |1223 |1244 |  54 |  9 |  32 |   0 | 4.764472e+03 | 6.113000e+03 |  28.30%| unknown
  1.1s|     1 |     0 |  2530 |     - |    17M |   0 |1156 |1223 |1248 |  58 | 10 |  32 |   0 | 4.769634e+03 | 6.113000e+03 |  28.16%| unknown
  1.1s|     1 |     0 |  2616 |     - |    17M |   0 |1156 |1223 |1253 |  63 | 11 |  32 |   0 | 4.774291e+03 | 6.113000e+03 |  28.04%| unknown
  1.1s|     1 |     0 |  2645 |     - |    17M |   0 |1156 |1223 |1257 |  67 | 12 |  32 |   0 | 4.775799e+03 | 6.113000e+03 |  28.00%| unknown
  1.2s|     1 |     0 |  2677 |     - |    17M |   0 |1156 |1223 |1260 |  70 | 13 |  32 |   0 | 4.777170e+03 | 6.113000e+03 |  27.96%| unknown
  1.2s|     1 |     0 |  2741 |     - |    18M |   0 |1156 |1223 |1265 |  75 | 14 |  32 |   0 | 4.778796e+03 | 6.113000e+03 |  27.92%| unknown
  1.3s|     1 |     0 |  2775 |     - |    18M |   0 |1156 |1223 |1272 |  82 | 15 |  32 |   0 | 4.781031e+03 | 6.113000e+03 |  27.86%| unknown
  1.3s|     1 |     0 |  2787 |     - |    18M |   0 |1156 |1223 |1269 |  85 | 16 |  32 |   0 | 4.781464e+03 | 6.113000e+03 |  27.85%| unknown
  1.3s|     1 |     0 |  2808 |     - |    19M |   0 |1156 |1223 |1272 |  88 | 17 |  32 |   0 | 4.782175e+03 | 6.113000e+03 |  27.83%| unknown
  1.3s|     1 |     0 |  2840 |     - |    19M |   0 |1156 |1223 |1274 |  90 | 18 |  32 |   0 | 4.785132e+03 | 6.113000e+03 |  27.75%| unknown
  1.4s|     1 |     0 |  2936 |     - |    19M |   0 |1156 |1223 |1279 |  95 | 19 |  32 |   0 | 4.787878e+03 | 6.113000e+03 |  27.68%| unknown
  1.4s|     1 |     0 |  2969 |     - |    19M |   0 |1156 |1223 |1284 | 100 | 20 |  32 |   0 | 4.788456e+03 | 6.113000e+03 |  27.66%| unknown
  1.4s|     1 |     0 |  3017 |     - |    19M |   0 |1156 |1223 |1288 | 104 | 21 |  32 |   0 | 4.789709e+03 | 6.113000e+03 |  27.63%| unknown
  1.4s|     1 |     0 |  3030 |     - |    19M |   0 |1156 |1223 |1277 | 107 | 22 |  32 |   0 | 4.789869e+03 | 6.113000e+03 |  27.62%| unknown
 time | node  | left  |LP iter|LP it/n|mem/heur|mdpt |vars |cons |rows |cuts |sepa|confs|strbr|  dualbound   | primalbound  |  gap   | compl. 
  1.5s|     1 |     0 |  3072 |     - |    19M |   0 |1156 |1223 |1281 | 111 | 23 |  32 |   0 | 4.790626e+03 | 6.113000e+03 |  27.60%| unknown
  1.5s|     1 |     0 |  3113 |     - |    19M |   0 |1156 |1223 |1287 | 117 | 24 |  32 |   0 | 4.791864e+03 | 6.113000e+03 |  27.57%| unknown
  1.5s|     1 |     0 |  3120 |     - |    19M |   0 |1156 |1223 |1290 | 120 | 25 |  32 |   0 | 4.792026e+03 | 6.113000e+03 |  27.57%| unknown
o 2.6s|     1 |     0 |  6518 |     - |feaspump|   0 |1156 |1225 |1290 | 120 | 27 |  34 |   0 | 4.792026e+03 | 5.210000e+03 |   8.72%| unknown
L 3.1s|     1 |     0 |  7524 |     - |    rens|   0 |1156 |1234 |1290 | 120 | 27 |  43 |   0 | 4.792026e+03 | 4.998000e+03 |   4.30%| unknown
  3.2s|     1 |     0 |  7524 |     - |    20M |   0 |1156 |1234 |1290 | 120 | 27 |  43 |   0 | 4.792026e+03 | 4.998000e+03 |   4.30%| unknown
  3.2s|     1 |     0 |  7524 |     - |    20M |   0 |1156 |1234 |1002 | 120 | 27 |  43 |   0 | 4.792026e+03 | 4.998000e+03 |   4.30%| unknown
  3.2s|     1 |     0 |  7545 |     - |    20M |   0 |1156 | 937 | 998 | 123 | 28 |  43 |   0 | 4.792456e+03 | 4.998000e+03 |   4.29%| unknown
  3.2s|     1 |     0 |  7568 |     - |    20M |   0 |1156 | 937 | 995 | 126 | 29 |  43 |   0 | 4.792662e+03 | 4.998000e+03 |   4.28%| unknown
(run 1, node 1) restarting after 313 global fixings of integer variables

(restart) converted 59 cuts from the global cut pool into linear constraints

presolving:
(round 1, fast)       313 del vars, 23 del conss, 0 add conss, 0 chg bounds, 0 chg sides, 411 chg coeffs, 0 upgd conss, 0 impls, 883 clqs
   (3.2s) running MILP presolver
   (3.2s) MILP presolver found nothing
(round 2, exhaustive) 313 del vars, 24 del conss, 0 add conss, 0 chg bounds, 1 chg sides, 411 chg coeffs, 0 upgd conss, 0 impls, 883 clqs
(round 3, exhaustive) 313 del vars, 24 del conss, 0 add conss, 0 chg bounds, 1 chg sides, 411 chg coeffs, 48 upgd conss, 0 impls, 883 clqs
(round 4, exhaustive) 313 del vars, 24 del conss, 0 add conss, 0 chg bounds, 1 chg sides, 424 chg coeffs, 48 upgd conss, 0 impls, 888 clqs
presolving (5 rounds: 5 fast, 4 medium, 4 exhaustive):
 313 deleted vars, 24 deleted constraints, 0 added constraints, 0 tightened bounds, 0 added holes, 1 changed sides, 424 changed coefficients
 0 implications, 888 cliques
presolved problem has 843 variables (843 bin, 0 int, 0 impl, 0 cont) and 913 constraints
     72 constraints of type <knapsack>
    786 constraints of type <setppc>
     10 constraints of type <linear>
     45 constraints of type <logicor>
transformed objective value is always integral (scale: 1)
Presolving Time: 0.10
transformed 3/9 original solutions to the transformed problem space

 time | node  | left  |LP iter|LP it/n|mem/heur|mdpt |vars |cons |rows |cuts |sepa|confs|strbr|  dualbound   | primalbound  |  gap   | compl. 
  3.6s|     1 |     0 |  9397 |     - |    21M |   0 | 843 | 913 | 902 |   0 |  0 |  43 |   0 | 4.792662e+03 | 4.998000e+03 |   4.28%| unknown
  3.6s|     1 |     0 |  9397 |     - |    21M |   0 | 843 | 913 | 781 |   0 |  0 |  43 |   0 | 4.792662e+03 | 4.998000e+03 |   4.28%| unknown
  3.8s|     1 |     0 |  9452 |     - |    22M |   0 | 843 | 791 | 785 |   8 |  1 |  43 |   0 | 4.792742e+03 | 4.998000e+03 |   4.28%| unknown
  3.8s|     1 |     0 |  9452 |     - |    22M |   0 | 843 | 791 | 780 |   8 |  1 |  43 |   0 | 4.792742e+03 | 4.998000e+03 |   4.28%| unknown
  4.1s|     1 |     0 |  9482 |     - |    24M |   0 | 843 | 782 | 788 |  16 |  2 |  43 |   0 | 4.793263e+03 | 4.998000e+03 |   4.27%| unknown
  4.4s|     1 |     0 |  9502 |     - |    26M |   0 | 843 | 782 | 791 |  19 |  3 |  43 |   0 | 4.793911e+03 | 4.998000e+03 |   4.26%| unknown
  4.8s|     1 |     0 |  9550 |     - |    29M |   0 | 843 | 782 | 796 |  24 |  4 |  43 |   0 | 4.795144e+03 | 4.998000e+03 |   4.23%| unknown
  5.2s|     1 |     0 |  9563 |     - |    32M |   0 | 843 | 782 | 801 |  29 |  5 |  43 |   0 | 4.795359e+03 | 4.998000e+03 |   4.23%| unknown
  5.6s|     1 |     0 |  9586 |     - |    33M |   0 | 843 | 782 | 803 |  31 |  6 |  43 |   0 | 4.795657e+03 | 4.998000e+03 |   4.22%| unknown
  5.9s|     1 |     0 |  9598 |     - |    35M |   0 | 843 | 782 | 806 |  34 |  7 |  43 |   0 | 4.795692e+03 | 4.998000e+03 |   4.22%| unknown
  6.4s|     1 |     0 |  9627 |     - |    37M |   0 | 843 | 782 | 810 |  38 |  8 |  43 |   0 | 4.795814e+03 | 4.998000e+03 |   4.22%| unknown
  6.7s|     1 |     0 |  9647 |     - |    39M |   0 | 843 | 782 | 812 |  40 |  9 |  43 |   0 | 4.795871e+03 | 4.998000e+03 |   4.21%| unknown
  6.9s|     1 |     0 |  9689 |     - |    40M |   0 | 843 | 782 | 814 |  42 | 10 |  43 |   0 | 4.796276e+03 | 4.998000e+03 |   4.21%| unknown
  7.0s|     1 |     0 |  9756 |     - |    40M |   0 | 843 | 782 | 800 |  45 | 11 |  43 |   0 | 4.796516e+03 | 4.998000e+03 |   4.20%| unknown
  7.0s|     1 |     0 |  9793 |     - |    40M |   0 | 843 | 782 | 805 |  50 | 12 |  43 |   0 | 4.796770e+03 | 4.998000e+03 |   4.20%| unknown
 time | node  | left  |LP iter|LP it/n|mem/heur|mdpt |vars |cons |rows |cuts |sepa|confs|strbr|  dualbound   | primalbound  |  gap   | compl. 
  7.1s|     1 |     0 |  9827 |     - |    40M |   0 | 843 | 782 | 808 |  53 | 13 |  43 |   0 | 4.797005e+03 | 4.998000e+03 |   4.19%| unknown
  7.1s|     1 |     0 |  9836 |     - |    40M |   0 | 843 | 782 | 810 |  55 | 14 |  43 |   0 | 4.797033e+03 | 4.998000e+03 |   4.19%| unknown
L 7.5s|     1 |     0 | 10313 |     - |    rens|   0 | 843 | 766 | 810 |  55 | 14 |  43 |   0 | 4.797033e+03 | 4.975000e+03 |   3.71%| unknown
(run 2, node 1) restarting after 137 global fixings of integer variables

(restart) converted 43 cuts from the global cut pool into linear constraints

presolving:
(round 1, fast)       137 del vars, 0 del conss, 0 add conss, 0 chg bounds, 0 chg sides, 140 chg coeffs, 0 upgd conss, 0 impls, 699 clqs
   (7.5s) running MILP presolver
   (7.5s) MILP presolver found nothing
(round 2, exhaustive) 137 del vars, 1 del conss, 0 add conss, 0 chg bounds, 1 chg sides, 140 chg coeffs, 0 upgd conss, 0 impls, 699 clqs
(round 3, exhaustive) 137 del vars, 1 del conss, 0 add conss, 0 chg bounds, 1 chg sides, 140 chg coeffs, 32 upgd conss, 0 impls, 699 clqs
(round 4, fast)       137 del vars, 1 del conss, 0 add conss, 0 chg bounds, 1 chg sides, 148 chg coeffs, 32 upgd conss, 0 impls, 699 clqs
(round 5, medium)     137 del vars, 2 del conss, 0 add conss, 0 chg bounds, 3 chg sides, 152 chg coeffs, 32 upgd conss, 0 impls, 699 clqs
(round 6, exhaustive) 137 del vars, 2 del conss, 0 add conss, 0 chg bounds, 3 chg sides, 157 chg coeffs, 32 upgd conss, 0 impls, 699 clqs
presolving (7 rounds: 7 fast, 5 medium, 4 exhaustive):
 137 deleted vars, 2 deleted constraints, 0 added constraints, 0 tightened bounds, 0 added holes, 3 changed sides, 157 changed coefficients
 0 implications, 699 cliques
presolved problem has 706 variables (706 bin, 0 int, 0 impl, 0 cont) and 807 constraints
     98 constraints of type <knapsack>
    653 constraints of type <setppc>
     20 constraints of type <linear>
     36 constraints of type <logicor>
transformed objective value is always integral (scale: 1)
Presolving Time: 0.12
transformed 4/10 original solutions to the transformed problem space

 time | node  | left  |LP iter|LP it/n|mem/heur|mdpt |vars |cons |rows |cuts |sepa|confs|strbr|  dualbound   | primalbound  |  gap   | compl. 
  7.8s|     1 |     0 | 13144 |     - |    33M |   0 | 706 | 807 | 806 |   0 |  0 |  43 |   0 | 4.797033e+03 | 4.975000e+03 |   3.71%| unknown
  7.8s|     1 |     0 | 13144 |     - |    33M |   0 | 706 | 807 | 737 |   0 |  0 |  43 |   0 | 4.797033e+03 | 4.975000e+03 |   3.71%| unknown
  8.1s|     1 |     0 | 13217 |     - |    33M |   0 | 706 | 738 | 743 |   6 |  1 |  43 |   0 | 4.797140e+03 | 4.975000e+03 |   3.71%| unknown
  8.3s|     1 |     0 | 13245 |     - |    33M |   0 | 706 | 738 | 746 |   9 |  2 |  43 |   0 | 4.797828e+03 | 4.975000e+03 |   3.69%| unknown
  8.6s|     1 |     0 | 13266 |     - |    34M |   0 | 706 | 738 | 750 |  13 |  3 |  43 |   0 | 4.798145e+03 | 4.975000e+03 |   3.69%| unknown
  8.9s|     1 |     0 | 13294 |     - |    35M |   0 | 706 | 738 | 753 |  16 |  4 |  43 |   0 | 4.798600e+03 | 4.975000e+03 |   3.68%| unknown
  9.3s|     1 |     0 | 13358 |     - |    38M |   0 | 706 | 738 | 756 |  19 |  5 |  43 |   0 | 4.798871e+03 | 4.975000e+03 |   3.67%| unknown
  9.6s|     1 |     0 | 13376 |     - |    39M |   0 | 706 | 738 | 758 |  21 |  6 |  43 |   0 | 4.798911e+03 | 4.975000e+03 |   3.67%| unknown
  9.9s|     1 |     0 | 13410 |     - |    40M |   0 | 706 | 738 | 760 |  23 |  7 |  43 |   0 | 4.799077e+03 | 4.975000e+03 |   3.67%| unknown
 10.2s|     1 |     0 | 13443 |     - |    42M |   0 | 706 | 738 | 762 |  25 |  8 |  43 |   0 | 4.799134e+03 | 4.975000e+03 |   3.66%| unknown
 10.6s|     1 |     0 | 13458 |     - |    44M |   0 | 706 | 738 | 764 |  27 |  9 |  43 |   0 | 4.799138e+03 | 4.975000e+03 |   3.66%| unknown
 10.9s|     1 |     0 | 13474 |     - |    46M |   0 | 706 | 738 | 727 |  28 | 10 |  43 |   0 | 4.799168e+03 | 4.975000e+03 |   3.66%| unknown
 10.9s|     1 |     0 | 13497 |     - |    46M |   0 | 706 | 738 | 728 |  29 | 11 |  43 |   0 | 4.799231e+03 | 4.975000e+03 |   3.66%| unknown
 11.0s|     1 |     0 | 13519 |     - |    46M |   0 | 706 | 738 | 730 |  31 | 12 |  43 |   0 | 4.799274e+03 | 4.975000e+03 |   3.66%| unknown
 11.1s|     1 |     0 | 13535 |     - |    46M |   0 | 706 | 738 | 732 |  33 | 13 |  43 |   0 | 4.799303e+03 | 4.975000e+03 |   3.66%| unknown
 time | node  | left  |LP iter|LP it/n|mem/heur|mdpt |vars |cons |rows |cuts |sepa|confs|strbr|  dualbound   | primalbound  |  gap   | compl. 
 11.1s|     1 |     0 | 13535 |     - |    46M |   0 | 706 | 738 | 731 |  33 | 13 |  43 |   0 | 4.799303e+03 | 4.975000e+03 |   3.66%| unknown
 11.1s|     1 |     0 | 13546 |     - |    46M |   0 | 706 | 737 | 734 |  36 | 14 |  43 |   0 | 4.799317e+03 | 4.975000e+03 |   3.66%| unknown
L12.2s|     1 |     0 | 15171 |     - |    rens|   0 | 706 | 737 | 734 |  36 | 14 |  43 |   0 | 4.799317e+03 | 4.885000e+03 |   1.79%| unknown
 12.2s|     1 |     0 | 15171 |     - |    46M |   0 | 706 | 737 | 734 |  36 | 14 |  43 |   0 | 4.799317e+03 | 4.885000e+03 |   1.79%| unknown
 12.2s|     1 |     0 | 15171 |     - |    46M |   0 | 706 | 737 | 669 |  36 | 14 |  43 |   0 | 4.799317e+03 | 4.885000e+03 |   1.79%| unknown
 12.4s|     1 |     0 | 15186 |     - |    46M |   0 | 706 | 672 | 652 |  39 | 15 |  43 |   0 | 4.799361e+03 | 4.885000e+03 |   1.78%| unknown
 12.4s|     1 |     0 | 15209 |     - |    46M |   0 | 706 | 672 | 654 |  41 | 16 |  43 |   0 | 4.799388e+03 | 4.885000e+03 |   1.78%| unknown
(run 3, node 1) restarting after 92 global fixings of integer variables

(restart) converted 31 cuts from the global cut pool into linear constraints

presolving:
(round 1, fast)       92 del vars, 0 del conss, 0 add conss, 0 chg bounds, 0 chg sides, 94 chg coeffs, 0 upgd conss, 0 impls, 524 clqs
   (12.4s) running MILP presolver
   (12.4s) MILP presolver found nothing
(round 2, exhaustive) 92 del vars, 0 del conss, 0 add conss, 0 chg bounds, 0 chg sides, 94 chg coeffs, 15 upgd conss, 0 impls, 524 clqs
(round 3, medium)     92 del vars, 0 del conss, 0 add conss, 0 chg bounds, 2 chg sides, 98 chg coeffs, 15 upgd conss, 0 impls, 524 clqs
presolving (4 rounds: 4 fast, 3 medium, 2 exhaustive):
 92 deleted vars, 0 deleted constraints, 0 added constraints, 0 tightened bounds, 0 added holes, 2 changed sides, 98 changed coefficients
 0 implications, 524 cliques
presolved problem has 614 variables (614 bin, 0 int, 0 impl, 0 cont) and 683 constraints
    111 constraints of type <knapsack>
    500 constraints of type <setppc>
     36 constraints of type <linear>
     36 constraints of type <logicor>
transformed objective value is always integral (scale: 1)
Presolving Time: 0.15
transformed 5/11 original solutions to the transformed problem space

 time | node  | left  |LP iter|LP it/n|mem/heur|mdpt |vars |cons |rows |cuts |sepa|confs|strbr|  dualbound   | primalbound  |  gap   | compl. 
 12.8s|     1 |     0 | 17609 |     - |    41M |   0 | 614 | 683 | 682 |   0 |  0 |  43 |   0 | 4.799388e+03 | 4.885000e+03 |   1.78%| unknown
 12.8s|     1 |     0 | 17609 |     - |    41M |   0 | 614 | 683 | 639 |   0 |  0 |  43 |   0 | 4.799388e+03 | 4.885000e+03 |   1.78%| unknown
 13.2s|     1 |     0 | 17691 |     - |    41M |   0 | 614 | 640 | 644 |   6 |  1 |  43 |   0 | 4.799388e+03 | 4.885000e+03 |   1.78%| unknown
 13.6s|     1 |     0 | 17709 |     - |    41M |   0 | 614 | 639 | 646 |   8 |  2 |  43 |   0 | 4.799429e+03 | 4.885000e+03 |   1.78%| unknown
 14.0s|     1 |     0 | 17729 |     - |    41M |   0 | 614 | 639 | 648 |  10 |  3 |  43 |   0 | 4.799523e+03 | 4.885000e+03 |   1.78%| unknown
 14.4s|     1 |     0 | 17749 |     - |    41M |   0 | 614 | 639 | 651 |  13 |  4 |  43 |   0 | 4.799573e+03 | 4.885000e+03 |   1.78%| unknown
 14.8s|     1 |     0 | 17760 |     - |    41M |   0 | 614 | 639 | 653 |  15 |  5 |  43 |   0 | 4.799608e+03 | 4.885000e+03 |   1.78%| unknown
 15.2s|     1 |     0 | 17785 |     - |    45M |   0 | 614 | 639 | 654 |  16 |  6 |  43 |   0 | 4.799713e+03 | 4.885000e+03 |   1.78%| unknown
 15.2s|     1 |     0 | 17785 |     - |    45M |   0 | 614 | 639 | 652 |  16 |  6 |  43 |   0 | 4.799713e+03 | 4.885000e+03 |   1.78%| unknown
 15.7s|     1 |     0 | 17791 |     - |    46M |   0 | 614 | 637 | 654 |  18 |  7 |  43 |   0 | 4.799738e+03 | 4.885000e+03 |   1.78%| unknown
 16.0s|     1 |     0 | 17794 |     - |    48M |   0 | 614 | 637 | 655 |  19 |  8 |  43 |   0 | 4.799750e+03 | 4.885000e+03 |   1.78%| unknown
 16.5s|     1 |     0 | 17821 |     - |    49M |   0 | 614 | 637 | 658 |  22 |  9 |  43 |   0 | 4.799867e+03 | 4.885000e+03 |   1.77%| unknown
 16.9s|     1 |     0 | 17822 |     - |    50M |   0 | 614 | 637 | 600 |  23 | 10 |  43 |   0 | 4.799867e+03 | 4.885000e+03 |   1.77%| unknown
 17.1s|     1 |     0 | 17856 |     - |    50M |   0 | 614 | 637 | 601 |  24 | 11 |  43 |   0 | 4.799927e+03 | 4.885000e+03 |   1.77%| unknown
 19.0s|     1 |     2 | 18093 |     - |    50M |   0 | 614 | 634 | 601 |  24 | 11 |  43 |  36 | 4.800645e+03 | 4.885000e+03 |   1.76%| unknown
(run 4, node 1) restarting after 49 global fixings of integer variables

(restart) converted 20 cuts from the global cut pool into linear constraints

presolving:
(round 1, fast)       49 del vars, 0 del conss, 0 add conss, 0 chg bounds, 1 chg sides, 52 chg coeffs, 0 upgd conss, 0 impls, 474 clqs
(round 2, exhaustive) 49 del vars, 0 del conss, 0 add conss, 0 chg bounds, 1 chg sides, 52 chg coeffs, 12 upgd conss, 0 impls, 474 clqs
(round 3, fast)       49 del vars, 0 del conss, 0 add conss, 0 chg bounds, 1 chg sides, 58 chg coeffs, 12 upgd conss, 0 impls, 474 clqs
presolving (4 rounds: 4 fast, 2 medium, 2 exhaustive):
 49 deleted vars, 0 deleted constraints, 0 added constraints, 0 tightened bounds, 0 added holes, 1 changed sides, 58 changed coefficients
 0 implications, 474 cliques
presolved problem has 565 variables (565 bin, 0 int, 0 impl, 0 cont) and 654 constraints
    122 constraints of type <knapsack>
    452 constraints of type <setppc>
     44 constraints of type <linear>
     36 constraints of type <logicor>
transformed objective value is always integral (scale: 1)
Presolving Time: 0.18
transformed 9/15 original solutions to the transformed problem space

 time | node  | left  |LP iter|LP it/n|mem/heur|mdpt |vars |cons |rows |cuts |sepa|confs|strbr|  dualbound   | primalbound  |  gap   | compl. 
 19.3s|     1 |     0 | 20322 |     - |    51M |   0 | 565 | 654 | 653 |   0 |  0 |  43 |  36 | 4.800645e+03 | 4.885000e+03 |   1.76%| unknown
 19.6s|     1 |     0 | 20360 |     - |    51M |   0 | 565 | 654 | 659 |   6 |  1 |  43 |  36 | 4.800645e+03 | 4.885000e+03 |   1.76%| unknown
 20.1s|     1 |     0 | 20418 |     - |    51M |   0 | 565 | 654 | 663 |  10 |  2 |  43 |  36 | 4.800645e+03 | 4.885000e+03 |   1.76%| unknown
 20.4s|     1 |     0 | 20475 |     - |    51M |   0 | 565 | 654 | 667 |  14 |  3 |  43 |  36 | 4.800645e+03 | 4.885000e+03 |   1.76%| unknown
 20.6s|     1 |     0 | 20541 |     - |    52M |   0 | 565 | 654 | 670 |  17 |  4 |  43 |  36 | 4.800645e+03 | 4.885000e+03 |   1.76%| unknown
 21.0s|     1 |     0 | 20560 |     - |    52M |   0 | 565 | 654 | 672 |  19 |  5 |  43 |  36 | 4.800645e+03 | 4.885000e+03 |   1.76%| unknown
 21.5s|     1 |     0 | 20601 |     - |    52M |   0 | 565 | 654 | 676 |  23 |  6 |  43 |  36 | 4.800740e+03 | 4.885000e+03 |   1.76%| unknown
 21.9s|     1 |     0 | 20668 |     - |    52M |   0 | 565 | 654 | 679 |  26 |  7 |  43 |  36 | 4.800896e+03 | 4.885000e+03 |   1.75%| unknown
 22.2s|     1 |     0 | 20696 |     - |    52M |   0 | 565 | 654 | 681 |  28 |  8 |  43 |  36 | 4.800925e+03 | 4.885000e+03 |   1.75%| unknown
 22.5s|     1 |     0 | 20723 |     - |    52M |   0 | 565 | 654 | 683 |  30 |  9 |  43 |  36 | 4.800992e+03 | 4.885000e+03 |   1.75%| unknown
 23.0s|     1 |     0 | 20780 |     - |    52M |   0 | 565 | 654 | 685 |  32 | 10 |  43 |  36 | 4.801104e+03 | 4.885000e+03 |   1.75%| unknown
 23.2s|     1 |     0 | 20795 |     - |    52M |   0 | 565 | 654 | 687 |  34 | 11 |  43 |  36 | 4.801142e+03 | 4.885000e+03 |   1.75%| unknown
 23.5s|     1 |     0 | 20814 |     - |    52M |   0 | 565 | 654 | 690 |  37 | 12 |  43 |  36 | 4.801191e+03 | 4.885000e+03 |   1.75%| unknown
 23.6s|     1 |     0 | 20830 |     - |    52M |   0 | 565 | 654 | 605 |  40 | 13 |  43 |  36 | 4.801220e+03 | 4.885000e+03 |   1.74%| unknown
 23.7s|     1 |     0 | 20843 |     - |    52M |   0 | 565 | 654 | 606 |  41 | 14 |  43 |  36 | 4.801247e+03 | 4.885000e+03 |   1.74%| unknown
 time | node  | left  |LP iter|LP it/n|mem/heur|mdpt |vars |cons |rows |cuts |sepa|confs|strbr|  dualbound   | primalbound  |  gap   | compl. 
 24.7s|     1 |     2 | 21831 |     - |    53M |   0 | 565 | 657 | 606 |  41 | 14 |  46 |  55 | 4.802415e+03 | 4.885000e+03 |   1.72%| unknown
 35.0s|   100 |    41 | 34354 | 196.8 |    80M |  10 | 565 | 736 | 562 | 248 |  0 | 126 | 683 | 4.803396e+03 | 4.885000e+03 |   1.70%|   3.88%
 44.1s|   200 |    67 | 41957 | 137.3 |    99M |  16 | 565 | 827 |   0 | 516 |  0 | 217 | 889 | 4.805481e+03 | 4.885000e+03 |   1.65%|   6.24%
 53.2s|   300 |   119 | 56298 | 139.3 |   107M |  17 | 565 | 894 | 583 | 839 |  2 | 284 | 997 | 4.809671e+03 | 4.885000e+03 |   1.57%|  10.86%
 60.5s|   400 |   161 | 66540 | 130.2 |   109M |  17 | 565 | 958 | 561 |1105 |  1 | 348 |1053 | 4.819598e+03 | 4.885000e+03 |   1.36%|  18.03%
 67.0s|   500 |   211 | 75190 | 121.5 |   109M |  17 | 565 |1016 | 563 |1291 |  1 | 407 |1100 | 4.825647e+03 | 4.885000e+03 |   1.23%|  26.80%
 72.9s|   600 |   245 | 80059 | 109.4 |   110M |  29 | 565 |1066 | 573 |1514 |  0 | 461 |1127 | 4.828865e+03 | 4.885000e+03 |   1.16%|  29.39%
 82.3s|   700 |   251 | 87624 | 104.6 |   111M |  29 | 565 |1173 | 577 |1817 |  0 | 572 |1173 | 4.831213e+03 | 4.885000e+03 |   1.11%|  34.40%
 89.3s|   800 |   263 | 92333 |  97.4 |   113M |  29 | 565 |1214 | 580 |2005 |  3 | 626 |1205 | 4.831671e+03 | 4.885000e+03 |   1.10%|  36.78%
 94.1s|   900 |   270 | 96296 |  91.0 |   114M |  29 | 565 |1225 | 575 |2167 |  1 | 671 |1217 | 4.832824e+03 | 4.885000e+03 |   1.08%|  40.19%
 97.5s|  1000 |   253 | 99841 |  85.5 |   114M |  29 | 565 |1242 | 563 |2317 |  0 | 705 |1244 | 4.834682e+03 | 4.885000e+03 |   1.04%|  44.64%
*98.7s|  1077 |   219 |101691 |  81.1 |    LP  |  29 | 565 |1257 | 574 |2376 |  2 | 748 |1257 | 4.835498e+03 | 4.880000e+03 |   0.92%|  46.81%
 99.1s|  1100 |   224 |102259 |  79.9 |   114M |  29 | 565 |1272 | 582 |2399 |  1 | 777 |1259 | 4.835498e+03 | 4.880000e+03 |   0.92%|  47.43%
  101s|  1200 |   227 |104878 |  75.5 |   114M |  29 | 565 |1279 | 584 |2459 |  2 | 817 |1269 | 4.838028e+03 | 4.880000e+03 |   0.87%|  52.40%
  102s|  1300 |   249 |107632 |  71.8 |   113M |  29 | 565 |1289 | 584 |2490 |  1 | 837 |1273 | 4.838566e+03 | 4.880000e+03 |   0.86%|  53.90%
 time | node  | left  |LP iter|LP it/n|mem/heur|mdpt |vars |cons |rows |cuts |sepa|confs|strbr|  dualbound   | primalbound  |  gap   | compl. 
  103s|  1400 |   230 |109965 |  68.3 |   113M |  29 | 565 |1328 | 591 |2543 |  0 | 900 |1276 | 4.839049e+03 | 4.880000e+03 |   0.85%|  55.18%
  103s|  1500 |   250 |112332 |  65.4 |   112M |  29 | 565 |1396 | 587 |2555 |  1 | 974 |1283 | 4.839049e+03 | 4.880000e+03 |   0.85%|  55.19%
  105s|  1600 |   236 |114957 |  62.9 |   111M |  29 | 565 |1385 | 590 |2597 |  1 |1000 |1295 | 4.843534e+03 | 4.880000e+03 |   0.75%|  57.03%
  105s|  1700 |   226 |116495 |  60.1 |   111M |  29 | 565 |1363 | 602 |2617 |  1 |1011 |1305 | 4.843833e+03 | 4.880000e+03 |   0.75%|  58.20%
  107s|  1800 |   226 |118737 |  58.0 |   112M |  29 | 565 |1330 | 581 |2648 |  1 |1060 |1317 | 4.845089e+03 | 4.880000e+03 |   0.72%|  61.44%
  108s|  1900 |   230 |121021 |  56.2 |   112M |  29 | 565 |1314 | 587 |2684 |  0 |1075 |1324 | 4.846329e+03 | 4.880000e+03 |   0.69%|  63.73%
  109s|  2000 |   234 |122942 |  54.3 |   112M |  29 | 565 |1300 |   0 |2696 |  0 |1096 |1334 | 4.846422e+03 | 4.880000e+03 |   0.69%|  64.18%
* 109s|  2032 |   195 |123439 |  53.7 |    LP  |  29 | 565 |1309 | 587 |2700 |  2 |1110 |1340 | 4.846422e+03 | 4.876000e+03 |   0.61%|  64.54%
  109s|  2100 |   191 |124494 |  52.5 |   112M |  29 | 565 |1271 | 584 |2706 |  0 |1128 |1343 | 4.847502e+03 | 4.876000e+03 |   0.59%|  65.90%
  110s|  2200 |   195 |126101 |  50.8 |   112M |  29 | 565 |1246 | 588 |2709 |  0 |1167 |1346 | 4.847834e+03 | 4.876000e+03 |   0.58%|  67.67%
  111s|  2300 |   179 |128561 |  49.7 |   112M |  29 | 565 |1177 | 588 |2717 |  1 |1202 |1359 | 4.849294e+03 | 4.876000e+03 |   0.55%|  71.89%
  112s|  2400 |   184 |130495 |  48.4 |   112M |  29 | 565 |1201 | 589 |2726 |  2 |1278 |1365 | 4.849913e+03 | 4.876000e+03 |   0.54%|  72.20%
  112s|  2500 |   182 |132174 |  47.2 |   103M |  29 | 565 |1157 | 592 |2732 |  0 |1311 |1366 | 4.852748e+03 | 4.876000e+03 |   0.48%|  73.73%
  113s|  2600 |   190 |134654 |  46.3 |   103M |  29 | 565 |1101 | 586 |2734 |  2 |1347 |1375 | 4.853532e+03 | 4.876000e+03 |   0.46%|  75.61%
* 113s|  2610 |   151 |134926 |  46.2 |    LP  |  29 | 565 |1100 | 586 |2734 |  2 |1347 |1375 | 4.853532e+03 | 4.873000e+03 |   0.40%|  75.96%
 time | node  | left  |LP iter|LP it/n|mem/heur|mdpt |vars |cons |rows |cuts |sepa|confs|strbr|  dualbound   | primalbound  |  gap   | compl. 
  114s|  2700 |   139 |136689 |  45.4 |   103M |  29 | 565 |1060 | 586 |2737 |  0 |1413 |1382 | 4.853785e+03 | 4.873000e+03 |   0.40%|  78.65%
* 114s|  2719 |   121 |137105 |  45.2 |    LP  |  29 | 565 |1037 | 590 |2755 |  1 |1415 |1382 | 4.853785e+03 | 4.872000e+03 |   0.38%|  79.77%
  115s|  2800 |   106 |138347 |  44.3 |   102M |  29 | 565 | 965 | 589 |2762 |  2 |1418 |1382 | 4.854491e+03 | 4.872000e+03 |   0.36%|  83.68%
  115s|  2900 |    86 |139864 |  43.3 |   102M |  29 | 565 | 970 | 572 |2771 |  2 |1465 |1386 | 4.855852e+03 | 4.872000e+03 |   0.33%|  87.18%
  116s|  3000 |    64 |141675 |  42.5 |   102M |  29 | 565 | 941 | 589 |2792 |  2 |1479 |1389 | 4.857301e+03 | 4.872000e+03 |   0.30%|  90.88%
* 116s|  3049 |    41 |142397 |  42.0 |    LP  |  29 | 565 | 934 | 592 |2792 |  1 |1481 |1389 | 4.858015e+03 | 4.869000e+03 |   0.23%|  92.55%
  117s|  3100 |     8 |143265 |  41.6 |   102M |  29 | 565 | 916 | 632 |2792 |  1 |1494 |1395 | 4.861018e+03 | 4.869000e+03 |   0.16%|  98.93%

SCIP Status        : problem is solved [optimal solution found]
Solving Time (sec) : 116.74
Solving Nodes      : 3112 (total of 3116 nodes in 5 runs)
Primal Bound       : +4.86900000000000e+03 (271 solutions)
Dual Bound         : +4.86900000000000e+03
Gap                : 0.00 %
Solve Status: optimal
Solve Time: 116.74 seconds
